15
1 0 2
2 0 2
2 1 3
3 0 4
3 1 4
3 2 2
4 0 1
4 1 2
4 2 3
4 3 1
5 0 3
5 1 4
5 2 4
5 3 4
5 4 1
6 0 3
6 1 1
6 2 3
6 3 4
6 4 4
6 5 2
7 0 2
7 1 2
7 2 2
7 3 4
7 4 2
7 5 2
7 6 2
8 0 1
8 1 4
8 2 1
8 3 2
8 4 4
8 5 2
8 6 1
8 7 4
9 0 1
9 1 4
9 2 3
9 3 1
9 4 3
9 5 3
9 6 3
9 7 1
9 8 2
10 0 3
10 1 3
10 2 4
10 3 2
10 4 3
10 5 3
10 6 3
10 7 4
10 8 4
10 9 1
11 0 2
11 1 2
11 2 2
11 3 1
11 4 4
11 5 3
11 6 1
11 7 1
11 8 3
11 9 3
11 10 4
12 0 1
12 1 1
12 2 3
12 3 2
12 4 3
12 5 3
12 6 4
12 7 1
12 8 1
12 9 4
12 10 2
12 11 2
13 0 4
13 1 3
13 2 3
13 3 4
13 4 4
13 5 1
13 6 1
13 7 4
13 8 4
13 9 2
13 10 1
13 11 3
13 12 3
14 0 3
14 1 4
14 2 4
14 3 4
14 4 4
14 5 2
14 6 2
14 7 1
14 8 4
14 9 2
14 10 3
14 11 4
14 12 1
14 13 1
